DIMENSION: 10
EDGE_WEIGHT_TYPE: EXPLICIT
EDGE_WEIGHT_FORMAT: FULL_MATRIX
EDGE_WEIGHT_SECTION:
32767 32767 32767 32767 32767 32767 32767 32767 32767 32767 
32767 32767 32767 32767 32767 53 84 32767 30 32767 
32767 32767 32767 32767 37 32767 13 41 32767 33 
32767 32767 32767 32767 32767 35 32767 32767 62 32767 
32767 32767 37 32767 32767 84 32767 32767 45 32767 
32767 53 32767 35 84 32767 32767 32767 32767 32767 
32767 84 13 32767 32767 32767 32767 32767 32767 32767 
32767 32767 41 32767 32767 32767 32767 32767 32767 81 
32767 30 32767 62 45 32767 32767 32767 32767 32767 
32767 32767 33 32767 32767 32767 32767 81 32767 32767 
EOF